c preprocessed version of kroB100.tsp, 100 vertices, 284 edges
p td 100 284
0 1
0 5
0 4
0 3
2 1
1 42
1 67
1 5
1 66
1 3
2 3
2 66
2 72
2 69
2 70
4 3
3 10
3 72
3 11
3 9
4 5
4 10
6 5
42 5
75 5
10 5
6 7
6 40
6 75
6 10
8 7
40 7
7 38
7 39
7 10
8 9
8 10
8 76
8 38
9 10
9 11
9 76
12 11
71 11
76 11
72 11
13 12
12 71
12 76
12 94
12 95
14 13
13 71
13 70
13 94
14 15
14 70
14 94
16 15
94 15
93 15
70 15
15 69
17 16
65 16
73 16
92 16
16 74
16 69
16 93
17 18
17 74
17 19
17 92
19 18
73 18
64 18
18 58
18 74
20 19
59 19
90 19
19 58
19 92
19 91
20 21
20 59
20 90
20 89
22 21
24 21
59 21
60 21
21 99
21 89
23 22
22 99
22 89
22 85
22 86
23 24
23 99
23 84
23 85
25 24
24 62
24 63
24 60
24 99
24 84
26 25
25 32
25 62
25 30
25 29
25 28
25 84
26 27
26 28
26 84
26 83
26 80
26 82
26 81
27 28
27 79
27 80
29 28
28 79
30 29
78 29
29 79
31 30
32 30
30 78
31 32
31 77
31 78
33 32
32 77
32 52
32 54
32 62
33 34
33 35
33 52
33 77
34 35
34 52
34 53
34 48
34 50
36 35
38 35
47 35
48 35
37 36
44 36
36 47
36 38
36 45
36 43
37 38
37 39
37 41
37 43
38 39
38 76
40 39
39 41
40 41
40 75
42 41
43 41
75 41
42 43
42 75
42 67
44 43
43 68
43 67
44 45
44 68
46 45
47 45
64 45
68 45
46 47
46 49
46 64
46 57
46 58
47 48
47 49
49 48
50 48
49 50
49 57
51 50
55 50
54 50
50 53
50 57
51 52
51 53
51 54
52 53
52 54
55 54
61 54
62 54
56 55
55 57
55 61
55 60
56 57
56 60
56 58
58 57
59 58
60 58
64 58
59 60
60 61
60 63
61 62
61 63
62 63
65 64
66 64
73 64
64 68
65 66
65 73
65 69
66 67
66 68
66 69
68 67
70 69
71 70
72 70
71 72
73 74
77 78
80 79
80 81
82 81
81 97
82 83
82 96
82 97
83 84
83 85
83 86
83 96
83 87
83 95
84 85
86 85
86 87
86 89
86 88
88 87
87 95
87 94
88 89
88 98
88 91
88 94
90 89
98 89
90 91
90 98
92 91
98 91
94 91
93 91
92 93
94 93
94 95
95 96
95 97
97 96
